
Gurobi 10.0.1 (linux64) logging started Sun Nov 26 15:49:42 2023

Set parameter LogFile to value "ArtificialInstance/ExperimentV2/S3T5K1/AdRo/gurobi91.txt"
Gurobi Optimizer version 10.0.1 build v10.0.1rc0 (linux64)

CPU model: AMD EPYC 7H12 64-Core Processor, instruction set [SSE2|AVX|AVX2]
Thread count: 128 physical cores, 128 logical processors, using up to 32 threads

Academic license 656792 - for non-commercial use only - registered to b.___@student.vu.nl
Optimize a model with 4447 rows, 4165 columns and 16349 nonzeros
Model fingerprint: 0x2b1cee7b
Variable types: 1 continuous, 4164 integer (4164 binary)
Coefficient statistics:
  Matrix range     [1e+00, 4e+01]
  Objective range  [1e+00, 2e+01]
  Bounds range     [1e+00, 1e+00]
  RHS range        [1e+00, 1e+00]
Presolve removed 421 rows and 388 columns
Presolve time: 0.06s
Presolved: 4026 rows, 3777 columns, 15153 nonzeros
Variable types: 1 continuous, 3776 integer (3776 binary)
Found heuristic solution: objective 197.1098530

Root relaxation: objective 5.654897e+01, 2701 iterations, 0.11 seconds (0.09 work units)

    Nodes    |    Current Node    |     Objective Bounds      |     Work
 Expl Unexpl |  Obj  Depth IntInf | Incumbent    BestBd   Gap | It/Node Time

     0     0   56.54897    0  247  197.10985   56.54897  71.3%     -    0s
H    0     0                     164.1150643   56.54897  65.5%     -    0s
H    0     0                      62.2080428   56.54897  9.10%     -    0s
*    0     0               0      57.3740303   57.37403  0.00%     -    0s

Cutting planes:
  Gomory: 4
  Zero half: 19

Explored 1 nodes (4072 simplex iterations) in 0.30 seconds (0.20 work units)
Thread count was 32 (of 128 available processors)

Solution count 4: 57.374 62.208 164.115 197.11 

Optimal solution found (tolerance 1.00e-04)
Best objective 5.737403028862e+01, best bound 5.737403028862e+01, gap 0.0000%
